
m = 10;

n = 10;

Amin = 40;

Amax = 50;

B = 1920;

lambda = 20.00;

c = 
[[8,9,6,8,8,2,5,5,3,4],
[8,3,3,10,5,8,3,5,10,8],
[7,5,5,10,4,3,3,6,8,4],
[7,6,2,2,10,6,9,4,8,2],
[6,5,10,5,2,4,10,3,7,7],
[9,10,10,2,9,3,10,10,5,8],
[4,10,10,2,9,7,7,7,9,4],
[5,2,5,4,6,5,4,3,4,9],
[8,3,9,7,10,5,7,9,5,10],
[4,5,8,3,5,4,8,8,7,4]];
